(set-logic HORN)
(set-info :source |
    Benchmark: C_VC
    Output by Princess (http://www.philipp.ruemmer.org/princess.shtml)
|)
(set-info :status unknown)
(declare-fun inv_main116 () Bool)
(declare-fun inv_main21 (Int Int Int Int Int Int) Bool)
(declare-fun inv_main73 (Int Int Int Int Int) Bool)
(assert (forall ((var0 Int) (var1 Int) (var2 Int) (var3 Int) (var4 Int) (var5 Int)) (or (not (<= 0 var2)) (or (not (and (inv_main21 8544 var3 var1 0 var2 var0) (and (and (not (= var1 (- 1))) (= var4 0)) (= var5 8544)))) (inv_main73 var3 var1 var4 var2 var0)))))
(assert (forall ((var0 Int) (var1 Int) (var2 Int) (var3 Int) (var4 Int) (var5 Int)) (or (not (<= 0 var2)) (or (not (and (inv_main21 8544 var3 (- 4) var4 var2 var0) (and (and (not (= var4 0)) (= var1 (- 4))) (= var5 8544)))) (inv_main73 var3 var1 var4 var2 var0)))))
(assert (forall ((var0 Int) (var1 Int) (var2 Int) (var3 Int) (var4 Int) (var5 Int)) (or (not (<= 0 var2)) (or (not (and (inv_main21 var5 var3 var1 var4 var2 var0) (not (or (not (<= 0 (+ 8512 (* (- 1) var5)))) (not (<= 0 (+ (+ var0 (- 2)) (- 1)))))))) inv_main116))))
(assert (forall ((var0 Int) (var1 Int) (var2 Int) (var3 Int) (var4 Int) (var5 Int)) (or (not (<= 0 var2)) (or (not (and (inv_main21 8672 var3 var1 var4 var2 5) (and (= var0 5) (= var5 8672)))) inv_main116))))
(assert (forall ((var0 Int) (var1 Int) (var2 Int) (var3 Int) (var4 Int) (var5 Int)) (or (not (<= 0 var3)) (or (not (and (inv_main21 8512 var4 var1 var5 var3 var0) (and (not (<= 0 (+ (+ var0 (- 2)) (- 1)))) (= 8528 var2)))) (inv_main21 var2 var4 var1 var5 var3 var0)))))
(assert (forall ((var0 Int) (var1 Int) (var2 Int) (var3 Int) (var4 Int) (var5 Int)) (or (not (<= 0 var2)) (or (not (and (inv_main21 8528 var3 var1 var5 var2 var0) (= 8544 var4))) (inv_main21 var4 var3 var1 var5 var2 var0)))))
(assert (forall ((var0 Int) (var1 Int) (var2 Int) (var3 Int) (var4 Int) (var5 Int)) (or (not (<= 0 var3)) (or (not (and (inv_main21 8560 var4 var2 var5 var3 var0) (= 8576 var1))) (inv_main21 var1 var4 var2 var5 var3 var0)))))
(assert (forall ((var0 Int) (var1 Int) (var2 Int) (var3 Int) (var4 Int) (var5 Int)) (or (not (<= 0 var2)) (or (not (and (inv_main21 8592 var4 var1 var5 var2 var0) (= 8608 var3))) (inv_main21 var3 var4 var1 var5 var2 var0)))))
(assert (forall ((var0 Int) (var1 Int) (var2 Int) (var3 Int) (var4 Int) (var5 Int)) (or (not (<= 0 var2)) (or (not (and (inv_main21 8608 var4 var1 var5 var2 var0) (= 8640 var3))) (inv_main21 var3 var4 var1 var5 var2 var0)))))
(assert (forall ((var0 Int) (var1 Int) (var2 Int) (var3 Int) (var4 Int) (var5 Int)) (or (not (<= 0 var2)) (or (not (and (inv_main21 8466 var3 var0 var4 var2 0) (and (= 8496 var1) (= 1 var5)))) (inv_main21 var1 var3 var0 var4 var2 var5)))))
(assert (forall ((var0 Int) (var1 Int) (var2 Int) (var3 Int) (var4 Int) (var5 Int)) (or (not (<= 0 var2)) (or (not (and (inv_main21 8466 var3 var1 var5 var2 var0) (and (and (not (= var0 0)) (not (<= 0 (+ (+ var0 (- 2)) (- 1))))) (= 8496 var4)))) (inv_main21 var4 var3 var1 var5 var2 var0)))))
(assert (forall ((var0 Int) (var1 Int) (var2 Int) (var3 Int) (var4 Int) (var5 Int)) (or (not (<= 0 var1)) (or (not (and (inv_main21 8496 var2 var0 var4 var1 1) (and (and (not (= var2 0)) (= 8656 var5)) (= 2 var3)))) (inv_main21 var5 var2 var0 var4 var1 var3)))))
(assert (forall ((var0 Int) (var1 Int) (var2 Int) (var3 Int) (var4 Int) (var5 Int)) (or (not (<= 0 var2)) (or (not (and (inv_main21 8496 0 var0 var5 var2 1) (and (and (= var4 0) (= 8512 var1)) (= 2 var3)))) (inv_main21 var1 var4 var0 var5 var2 var3)))))
(assert (forall ((var0 Int) (var1 Int) (var2 Int) (var3 Int) (var4 Int) (var5 Int)) (or (not (<= 0 var2)) (or (not (and (inv_main21 8496 var3 var1 var4 var2 var0) (and (and (and (not (= var3 0)) (not (= var0 1))) (not (<= 0 (+ (+ var0 (- 2)) (- 1))))) (= 8656 var5)))) (inv_main21 var5 var3 var1 var4 var2 var0)))))
(assert (forall ((var0 Int) (var1 Int) (var2 Int) (var3 Int) (var4 Int) (var5 Int)) (or (not (<= 0 var3)) (or (not (and (inv_main21 8496 0 var2 var5 var3 var0) (and (and (and (not (= var0 1)) (not (<= 0 (+ (+ var0 (- 2)) (- 1))))) (= var4 0)) (= 8512 var1)))) (inv_main21 var1 var4 var2 var5 var3 var0)))))
(assert (forall ((var0 Int) (var1 Int) (var2 Int) (var3 Int) (var4 Int) (var5 Int) (var6 Int)) (or (not (<= 0 var2)) (or (not (and (inv_main21 8576 var3 var1 var4 var2 var0) (and (= var5 2) (= 8466 var6)))) (inv_main21 var6 var3 var1 var4 var2 var0)))))
(assert (forall ((var0 Int) (var1 Int) (var2 Int) (var3 Int) (var4 Int) (var5 Int) (var6 Int)) (or (not (<= 0 var3)) (or (not (and (inv_main21 8576 var4 var2 var5 var3 var0) (and (not (= var6 2)) (= 8592 var1)))) (inv_main21 var1 var4 var2 var5 var3 var0)))))
(assert (forall ((var0 Int) (var1 Int) (var2 Int) (var3 Int) (var4 Int) (var5 Int)) (or (not (<= 0 var2)) (or (not (and (inv_main21 8640 0 var1 var4 var2 3) (and (and (= var3 0) (= 8656 var0)) (= 4 var5)))) (inv_main21 var0 var3 var1 var4 var2 var5)))))
(assert (forall ((var0 Int) (var1 Int) (var2 Int) (var3 Int) (var4 Int) (var5 Int)) (or (not (<= 0 var2)) (or (not (and (inv_main21 8640 0 var1 var5 var2 var0) (and (and (not (= var0 3)) (= var3 0)) (= 8656 var4)))) (inv_main21 var4 var3 var1 var5 var2 var0)))))
(assert (forall ((var0 Int) (var1 Int) (var2 Int) (var3 Int) (var4 Int) (var5 Int)) (or (not (<= 0 var2)) (or (not (and (inv_main21 8656 var3 var1 var5 var2 2) (and (= 8672 var0) (= 3 var4)))) (inv_main21 var0 var3 var1 var5 var2 var4)))))
(assert (forall ((var0 Int) (var1 Int) (var2 Int) (var3 Int) (var4 Int) (var5 Int)) (or (not (<= 0 var2)) (or (not (and (inv_main21 8656 var3 var1 var5 var2 var0) (and (not (= var0 2)) (= 8672 var4)))) (inv_main21 var4 var3 var1 var5 var2 var0)))))
(assert (forall ((var0 Int) (var1 Int) (var2 Int) (var3 Int) (var4 Int) (var5 Int)) (or (not (<= 0 var1)) (or (not (and (inv_main21 8672 var2 var0 var4 var1 4) (and (and (not (= var2 0)) (= 8640 var3)) (= 5 var5)))) (inv_main21 var3 var2 var0 var4 var1 var5)))))
(assert (forall ((var0 Int) (var1 Int) (var2 Int) (var3 Int) (var4 Int) (var5 Int)) (or (not (<= 0 var2)) (or (not (and (inv_main21 8672 var3 var1 var4 var2 var0) (and (and (and (not (= var3 0)) (not (= var0 5))) (not (= var0 4))) (= 8640 var5)))) (inv_main21 var5 var3 var1 var4 var2 var0)))))
(assert (forall ((var0 Int) (var1 Int) (var2 Int) (var3 Int) (var4 Int) (var5 Int)) (or (not (<= 0 var3)) (or (not (and (inv_main21 8544 var4 (- 1) var5 var3 var0) (and (= var2 (- 1)) (= 8560 var1)))) (inv_main21 var1 var4 var2 var5 var3 var0)))))
(assert (forall ((var0 Int) (var1 Int) (var2 Int) (var3 Int) (var4 Int) (var5 Int)) (or (not (<= 0 var3)) (or (not (and (inv_main21 8544 var4 var2 var5 var3 var0) (and (and (and (not (= var2 (- 4))) (not (= var5 0))) (not (= var2 (- 1)))) (= 8560 var1)))) (inv_main21 var1 var4 var2 var5 var3 var0)))))
(assert (forall ((var0 Int) (var1 Int) (var2 Int) (var3 Int) (var4 Int) (var5 Int)) (or (not (<= 0 var3)) (or (not (and (inv_main73 var4 (- 2) var5 var3 var0) (and (and (not (= var3 (- 256))) (= var1 (- 2))) (= 8560 var2)))) (inv_main21 var2 var4 var1 var5 var3 var0)))))
(assert (forall ((var0 Int) (var1 Int) (var2 Int) (var3 Int) (var4 Int) (var5 Int)) (or (not (<= 0 var3)) (or (not (and (inv_main73 var4 var2 var5 (- 256) var0) (and (= var3 (- 256)) (= 8576 var1)))) (inv_main21 var1 var4 var2 var5 var3 var0)))))
(assert (forall ((var0 Int) (var1 Int) (var2 Int) (var3 Int) (var4 Int) (var5 Int)) (or (not (<= 0 var2)) (or (not (and (inv_main73 var3 var1 var4 var2 var0) (and (and (not (= var1 (- 2))) (not (= var2 (- 256)))) (= 8576 var5)))) (inv_main21 var5 var3 var1 var4 var2 var0)))))
(assert (forall ((var0 Int) (var1 Int) (var2 Int) (var3 Int) (var4 Int) (var5 Int)) (or (not (and (= 8466 var0) (= 0 var1))) (inv_main21 var0 var4 var5 var3 var2 var1))))
(assert (not inv_main116))
(check-sat)
